p cnf 430 1488
-191 -70 0
-191 136 0
-191 121 0
-191 143 0
-191 160 0
191 70 -136 -121 -143 -160 0
-192 43 0
-192 136 0
-192 138 0
-192 142 0
-192 -120 0
192 -43 -136 -138 -142 120 0
-193 -166 0
-193 -46 0
-193 142 0
-193 -117 0
-193 80 0
193 166 46 -142 117 -80 0
-194 49 0
-194 -148 0
-194 174 0
-194 -184 0
-194 13 0
194 -49 148 -174 184 -13 0
-195 -182 0
-195 133 0
-195 -173 0
-195 -190 0
-195 27 0
195 182 -133 173 190 -27 0
191 192 193 194 195 0
-196 57 0
-196 -40 0
-196 135 0
-196 -154 0
-196 -50 0
196 -57 40 -135 154 50 0
-197 71 0
-197 64 0
-197 158 0
-197 2 0
-197 -82 0
197 -71 -64 -158 -2 82 0
-198 -12 0
-198 -86 0
-198 186 0
-198 190 0
-198 -136 0
198 12 86 -186 -190 136 0
-199 -56 0
-199 -7 0
-199 51 0
-199 -128 0
-199 101 0
199 56 7 -51 128 -101 0
-200 69 0
-200 -130 0
-200 -80 0
-200 185 0
-200 -72 0
200 -69 130 80 -185 72 0
196 197 198 199 200 0
-201 23 0
-201 -62 0
-201 -88 0
-201 -157 0
-201 -184 0
201 -23 62 88 157 184 0
-202 -16 0
-202 -88 0
-202 66 0
-202 133 0
-202 -2 0
202 16 88 -66 -133 2 0
-203 21 0
-203 176 0
-203 -114 0
-203 -130 0
-203 74 0
203 -21 -176 114 130 -74 0
-204 22 0
-204 179 0
-204 103 0
-204 106 0
-204 152 0
204 -22 -179 -103 -106 -152 0
-205 -53 0
-205 -94 0
-205 -63 0
-205 90 0
-205 -70 0
205 53 94 63 -90 70 0
201 202 203 204 205 0
-206 166 0
-206 77 0
-206 -58 0
-206 22 0
-206 -5 0
206 -166 -77 58 -22 5 0
-207 34 0
-207 -137 0
-207 16 0
-207 -100 0
-207 -73 0
207 -34 137 -16 100 73 0
-208 154 0
-208 117 0
-208 148 0
-208 47 0
-208 139 0
208 -154 -117 -148 -47 -139 0
-209 -171 0
-209 90 0
-209 63 0
-209 66 0
-209 -157 0
209 171 -90 -63 -66 157 0
-210 21 0
-210 -40 0
-210 15 0
-210 -23 0
-210 -188 0
210 -21 40 -15 23 188 0
206 207 208 209 210 0
-211 -65 0
-211 -51 0
-211 6 0
-211 46 0
-211 148 0
211 65 51 -6 -46 -148 0
-212 124 0
-212 -109 0
-212 82 0
-212 -31 0
-212 20 0
212 -124 109 -82 31 -20 0
-213 -159 0
-213 122 0
-213 -94 0
-213 -155 0
-213 -93 0
213 159 -122 94 155 93 0
-214 -125 0
-214 34 0
-214 -124 0
-214 -48 0
-214 83 0
214 125 -34 124 48 -83 0
-215 -144 0
-215 60 0
-215 -104 0
-215 93 0
-215 -52 0
215 144 -60 104 -93 52 0
211 212 213 214 215 0
-216 172 0
-216 15 0
-216 -170 0
-216 98 0
-216 7 0
216 -172 -15 170 -98 -7 0
-217 -79 0
-217 152 0
-217 66 0
-217 -65 0
-217 188 0
217 79 -152 -66 65 -188 0
-218 -42 0
-218 135 0
-218 -33 0
-218 -23 0
-218 114 0
218 42 -135 33 23 -114 0
-219 -72 0
-219 -106 0
-219 190 0
-219 -155 0
-219 -42 0
219 72 106 -190 155 42 0
-220 -145 0
-220 138 0
-220 -180 0
-220 -29 0
-220 21 0
220 145 -138 180 29 -21 0
216 217 218 219 220 0
-221 54 0
-221 173 0
-221 -188 0
-221 28 0
-221 157 0
221 -54 -173 188 -28 -157 0
-222 -179 0
-222 -92 0
-222 99 0
-222 140 0
-222 -66 0
222 179 92 -99 -140 66 0
-223 -176 0
-223 94 0
-223 -126 0
-223 95 0
-223 -125 0
223 176 -94 126 -95 125 0
-224 100 0
-224 176 0
-224 -81 0
-224 -70 0
-224 -116 0
224 -100 -176 81 70 116 0
-225 -157 0
-225 21 0
-225 -187 0
-225 14 0
-225 30 0
225 157 -21 187 -14 -30 0
221 222 223 224 225 0
-226 -35 0
-226 167 0
-226 -108 0
-226 -16 0
-226 40 0
226 35 -167 108 16 -40 0
-227 57 0
-227 -53 0
-227 -176 0
-227 112 0
-227 117 0
227 -57 53 176 -112 -117 0
-228 -19 0
-228 -181 0
-228 58 0
-228 100 0
-228 27 0
228 19 181 -58 -100 -27 0
-229 -163 0
-229 46 0
-229 -140 0
-229 101 0
-229 78 0
229 163 -46 140 -101 -78 0
-230 21 0
-230 -7 0
-230 129 0
-230 -56 0
-230 109 0
230 -21 7 -129 56 -109 0
226 227 228 229 230 0
-231 -68 0
-231 -173 0
-231 23 0
-231 -161 0
-231 -40 0
231 68 173 -23 161 40 0
-232 -144 0
-232 -17 0
-232 107 0
-232 92 0
-232 -35 0
232 144 17 -107 -92 35 0
-233 -174 0
-233 -52 0
-233 161 0
-233 137 0
-233 127 0
233 174 52 -161 -137 -127 0
-234 47 0
-234 2 0
-234 144 0
-234 109 0
-234 -71 0
234 -47 -2 -144 -109 71 0
-235 -102 0
-235 142 0
-235 -172 0
-235 107 0
-235 -58 0
235 102 -142 172 -107 58 0
231 232 233 234 235 0
-236 -47 0
-236 -88 0
-236 150 0
-236 -181 0
-236 174 0
236 47 88 -150 181 -174 0
-237 -149 0
-237 104 0
-237 -141 0
-237 146 0
-237 -48 0
237 149 -104 141 -146 48 0
-238 126 0
-238 74 0
-238 -17 0
-238 -22 0
-238 188 0
238 -126 -74 17 22 -188 0
-239 76 0
-239 171 0
-239 -120 0
-239 184 0
-239 40 0
239 -76 -171 120 -184 -40 0
-240 -144 0
-240 76 0
-240 155 0
-240 -56 0
-240 94 0
240 144 -76 -155 56 -94 0
236 237 238 239 240 0
-241 -183 0
-241 -25 0
-241 -76 0
-241 13 0
-241 113 0
241 183 25 76 -13 -113 0
-242 170 0
-242 -66 0
-242 115 0
-242 -185 0
-242 -96 0
242 -170 66 -115 185 96 0
-243 169 0
-243 114 0
-243 178 0
-243 -182 0
-243 -120 0
243 -169 -114 -178 182 120 0
-244 14 0
-244 -43 0
-244 -52 0
-244 80 0
-244 -135 0
244 -14 43 52 -80 135 0
-245 51 0
-245 -93 0
-245 46 0
-245 118 0
-245 -147 0
245 -51 93 -46 -118 147 0
241 242 243 244 245 0
-246 -125 0
-246 -46 0
-246 -61 0
-246 -11 0
-246 -176 0
246 125 46 61 11 176 0
-247 -44 0
-247 -179 0
-247 -76 0
-247 -145 0
-247 67 0
247 44 179 76 145 -67 0
-248 -65 0
-248 26 0
-248 113 0
-248 162 0
-248 -146 0
248 65 -26 -113 -162 146 0
-249 -120 0
-249 137 0
-249 86 0
-249 -122 0
-249 75 0
249 120 -137 -86 122 -75 0
-250 117 0
-250 -48 0
-250 122 0
-250 -25 0
-250 90 0
250 -117 48 -122 25 -90 0
246 247 248 249 250 0
-251 94 0
-251 -20 0
-251 125 0
-251 13 0
-251 7 0
251 -94 20 -125 -13 -7 0
-252 52 0
-252 5 0
-252 -179 0
-252 -190 0
-252 176 0
252 -52 -5 179 190 -176 0
-253 52 0
-253 112 0
-253 182 0
-253 123 0
-253 81 0
253 -52 -112 -182 -123 -81 0
-254 -16 0
-254 62 0
-254 -118 0
-254 141 0
-254 -121 0
254 16 -62 118 -141 121 0
-255 -53 0
-255 -84 0
-255 -1 0
-255 -189 0
-255 -29 0
255 53 84 1 189 29 0
251 252 253 254 255 0
-256 144 0
-256 -94 0
-256 120 0
-256 176 0
-256 -59 0
256 -144 94 -120 -176 59 0
-257 6 0
-257 153 0
-257 51 0
-257 76 0
-257 165 0
257 -6 -153 -51 -76 -165 0
-258 135 0
-258 -66 0
-258 -183 0
-258 -9 0
-258 16 0
258 -135 66 183 9 -16 0
-259 3 0
-259 -123 0
-259 -143 0
-259 -139 0
-259 -13 0
259 -3 123 143 139 13 0
-260 76 0
-260 -107 0
-260 -8 0
-260 81 0
-260 -21 0
260 -76 107 8 -81 21 0
256 257 258 259 260 0
-261 -16 0
-261 -69 0
-261 35 0
-261 -84 0
-261 113 0
261 16 69 -35 84 -113 0
-262 -59 0
-262 -68 0
-262 -153 0
-262 -9 0
-262 163 0
262 59 68 153 9 -163 0
-263 -155 0
-263 131 0
-263 -171 0
-263 -129 0
-263 -154 0
263 155 -131 171 129 154 0
-264 103 0
-264 166 0
-264 -89 0
-264 -156 0
-264 -115 0
264 -103 -166 89 156 115 0
-265 4 0
-265 -44 0
-265 -136 0
-265 -24 0
-265 -122 0
265 -4 44 136 24 122 0
261 262 263 264 265 0
-266 -119 0
-266 136 0
-266 -12 0
-266 -58 0
-266 64 0
266 119 -136 12 58 -64 0
-267 -94 0
-267 -155 0
-267 107 0
-267 -31 0
-267 -24 0
267 94 155 -107 31 24 0
-268 -145 0
-268 183 0
-268 69 0
-268 -76 0
-268 -146 0
268 145 -183 -69 76 146 0
-269 130 0
-269 -156 0
-269 139 0
-269 -171 0
-269 143 0
269 -130 156 -139 171 -143 0
-270 -56 0
-270 42 0
-270 -82 0
-270 -31 0
-270 -100 0
270 56 -42 82 31 100 0
266 267 268 269 270 0
-271 -138 0
-271 -184 0
-271 12 0
-271 -34 0
-271 167 0
271 138 184 -12 34 -167 0
-272 -177 0
-272 -51 0
-272 155 0
-272 -69 0
-272 108 0
272 177 51 -155 69 -108 0
-273 -108 0
-273 127 0
-273 -163 0
-273 153 0
-273 148 0
273 108 -127 163 -153 -148 0
-274 -116 0
-274 130 0
-274 137 0
-274 131 0
-274 -15 0
274 116 -130 -137 -131 15 0
-275 143 0
-275 -99 0
-275 -21 0
-275 -183 0
-275 -16 0
275 -143 99 21 183 16 0
271 272 273 274 275 0
-276 159 0
-276 -167 0
-276 151 0
-276 -102 0
-276 -21 0
276 -159 167 -151 102 21 0
-277 189 0
-277 -28 0
-277 -12 0
-277 -185 0
-277 -46 0
277 -189 28 12 185 46 0
-278 -160 0
-278 -170 0
-278 -98 0
-278 96 0
-278 177 0
278 160 170 98 -96 -177 0
-279 10 0
-279 95 0
-279 -81 0
-279 -141 0
-279 34 0
279 -10 -95 81 141 -34 0
-280 1 0
-280 -165 0
-280 -52 0
-280 97 0
-280 -36 0
280 -1 165 52 -97 36 0
276 277 278 279 280 0
-281 -59 0
-281 -177 0
-281 -180 0
-281 -141 0
-281 129 0
281 59 177 180 141 -129 0
-282 -115 0
-282 -109 0
-282 166 0
-282 -24 0
-282 -85 0
282 115 109 -166 24 85 0
-283 -140 0
-283 16 0
-283 173 0
-283 -75 0
-283 141 0
283 140 -16 -173 75 -141 0
-284 177 0
-284 -15 0
-284 -129 0
-284 -84 0
-284 -136 0
284 -177 15 129 84 136 0
-285 36 0
-285 -3 0
-285 123 0
-285 71 0
-285 -79 0
285 -36 3 -123 -71 79 0
281 282 283 284 285 0
-286 -141 0
-286 -83 0
-286 53 0
-286 -76 0
-286 -167 0
286 141 83 -53 76 167 0
-287 32 0
-287 -17 0
-287 -110 0
-287 -105 0
-287 -45 0
287 -32 17 110 105 45 0
-288 -56 0
-288 15 0
-288 152 0
-288 -184 0
-288 160 0
288 56 -15 -152 184 -160 0
-289 142 0
-289 -181 0
-289 -189 0
-289 101 0
-289 -56 0
289 -142 181 189 -101 56 0
-290 -31 0
-290 156 0
-290 -32 0
-290 -145 0
-290 -110 0
290 31 -156 32 145 110 0
286 287 288 289 290 0
-291 -7 0
-291 110 0
-291 100 0
-291 17 0
-291 -126 0
291 7 -110 -100 -17 126 0
-292 -139 0
-292 -147 0
-292 -101 0
-292 95 0
-292 38 0
292 139 147 101 -95 -38 0
-293 161 0
-293 -14 0
-293 -144 0
-293 -73 0
-293 -78 0
293 -161 14 144 73 78 0
-294 -34 0
-294 67 0
-294 -17 0
-294 5 0
-294 -71 0
294 34 -67 17 -5 71 0
-295 40 0
-295 -36 0
-295 138 0
-295 -170 0
-295 60 0
295 -40 36 -138 170 -60 0
291 292 293 294 295 0
-296 169 0
-296 160 0
-296 -74 0
-296 17 0
-296 -109 0
296 -169 -160 74 -17 109 0
-297 53 0
-297 -93 0
-297 119 0
-297 178 0
-297 173 0
297 -53 93 -119 -178 -173 0
-298 139 0
-298 -118 0
-298 -2 0
-298 179 0
-298 149 0
298 -139 118 2 -179 -149 0
-299 -144 0
-299 105 0
-299 -83 0
-299 63 0
-299 -9 0
299 144 -105 83 -63 9 0
-300 -41 0
-300 7 0
-300 107 0
-300 21 0
-300 -69 0
300 41 -7 -107 -21 69 0
296 297 298 299 300 0
-301 -104 0
-301 -166 0
-301 -143 0
-301 76 0
-301 -13 0
301 104 166 143 -76 13 0
-302 140 0
-302 -162 0
-302 148 0
-302 184 0
-302 -120 0
302 -140 162 -148 -184 120 0
-303 -30 0
-303 -62 0
-303 114 0
-303 -33 0
-303 -6 0
303 30 62 -114 33 6 0
-304 -170 0
-304 147 0
-304 55 0
-304 -164 0
-304 -43 0
304 170 -147 -55 164 43 0
-305 -188 0
-305 32 0
-305 30 0
-305 41 0
-305 -127 0
305 188 -32 -30 -41 127 0
301 302 303 304 305 0
-306 111 0
-306 -177 0
-306 -14 0
-306 20 0
-306 187 0
306 -111 177 14 -20 -187 0
-307 113 0
-307 -116 0
-307 23 0
-307 15 0
-307 60 0
307 -113 116 -23 -15 -60 0
-308 -101 0
-308 -146 0
-308 96 0
-308 172 0
-308 161 0
308 101 146 -96 -172 -161 0
-309 128 0
-309 34 0
-309 138 0
-309 -103 0
-309 59 0
309 -128 -34 -138 103 -59 0
-310 -139 0
-310 -110 0
-310 40 0
-310 43 0
-310 168 0
310 139 110 -40 -43 -168 0
306 307 308 309 310 0
-311 106 0
-311 -101 0
-311 87 0
-311 173 0
-311 -111 0
311 -106 101 -87 -173 111 0
-312 -103 0
-312 157 0
-312 135 0
-312 -19 0
-312 168 0
312 103 -157 -135 19 -168 0
-313 -139 0
-313 156 0
-313 -78 0
-313 -45 0
-313 79 0
313 139 -156 78 45 -79 0
-314 10 0
-314 146 0
-314 66 0
-314 177 0
-314 -129 0
314 -10 -146 -66 -177 129 0
-315 154 0
-315 105 0
-315 96 0
-315 -94 0
-315 60 0
315 -154 -105 -96 94 -60 0
311 312 313 314 315 0
-316 124 0
-316 16 0
-316 -92 0
-316 44 0
-316 -182 0
316 -124 -16 92 -44 182 0
-317 -132 0
-317 -64 0
-317 -31 0
-317 -46 0
-317 -186 0
317 132 64 31 46 186 0
-318 112 0
-318 43 0
-318 -7 0
-318 120 0
-318 86 0
318 -112 -43 7 -120 -86 0
-319 -156 0
-319 -168 0
-319 88 0
-319 -63 0
-319 -113 0
319 156 168 -88 63 113 0
-320 -77 0
-320 -142 0
-320 -176 0
-320 -14 0
-320 -26 0
320 77 142 176 14 26 0
316 317 318 319 320 0
-321 -190 0
-321 -98 0
-321 26 0
-321 148 0
-321 41 0
321 190 98 -26 -148 -41 0
-322 -91 0
-322 83 0
-322 79 0
-322 88 0
-322 160 0
322 91 -83 -79 -88 -160 0
-323 -98 0
-323 131 0
-323 -70 0
-323 80 0
-323 -41 0
323 98 -131 70 -80 41 0
-324 -111 0
-324 -176 0
-324 -182 0
-324 -37 0
-324 -66 0
324 111 176 182 37 66 0
-325 -5 0
-325 17 0
-325 176 0
-325 187 0
-325 178 0
325 5 -17 -176 -187 -178 0
321 322 323 324 325 0
-326 175 0
-326 -24 0
-326 -81 0
-326 -185 0
-326 -29 0
326 -175 24 81 185 29 0
-327 -109 0
-327 98 0
-327 48 0
-327 152 0
-327 157 0
327 109 -98 -48 -152 -157 0
-328 69 0
-328 -81 0
-328 141 0
-328 -182 0
-328 10 0
328 -69 81 -141 182 -10 0
-329 122 0
-329 -72 0
-329 73 0
-329 -69 0
-329 91 0
329 -122 72 -73 69 -91 0
-330 97 0
-330 -112 0
-330 -183 0
-330 150 0
-330 -14 0
330 -97 112 183 -150 14 0
326 327 328 329 330 0
-331 29 0
-331 -157 0
-331 138 0
-331 -22 0
-331 46 0
331 -29 157 -138 22 -46 0
-332 -73 0
-332 -29 0
-332 -52 0
-332 24 0
-332 139 0
332 73 29 52 -24 -139 0
-333 55 0
-333 -10 0
-333 -103 0
-333 -106 0
-333 -109 0
333 -55 10 103 106 109 0
-334 165 0
-334 -133 0
-334 89 0
-334 28 0
-334 -96 0
334 -165 133 -89 -28 96 0
-335 110 0
-335 70 0
-335 10 0
-335 -81 0
-335 73 0
335 -110 -70 -10 81 -73 0
331 332 333 334 335 0
-336 -40 0
-336 112 0
-336 121 0
-336 -190 0
-336 -97 0
336 40 -112 -121 190 97 0
-337 187 0
-337 53 0
-337 127 0
-337 142 0
-337 100 0
337 -187 -53 -127 -142 -100 0
-338 -130 0
-338 -155 0
-338 -25 0
-338 -85 0
-338 45 0
338 130 155 25 85 -45 0
-339 190 0
-339 -122 0
-339 164 0
-339 -156 0
-339 -45 0
339 -190 122 -164 156 45 0
-340 63 0
-340 -68 0
-340 6 0
-340 156 0
-340 57 0
340 -63 68 -6 -156 -57 0
336 337 338 339 340 0
-341 -92 0
-341 139 0
-341 -85 0
-341 -152 0
-341 151 0
341 92 -139 85 152 -151 0
-342 -100 0
-342 155 0
-342 81 0
-342 111 0
-342 -69 0
342 100 -155 -81 -111 69 0
-343 187 0
-343 -10 0
-343 108 0
-343 117 0
-343 110 0
343 -187 10 -108 -117 -110 0
-344 6 0
-344 139 0
-344 100 0
-344 -40 0
-344 -118 0
344 -6 -139 -100 40 118 0
-345 172 0
-345 -61 0
-345 -188 0
-345 -105 0
-345 -150 0
345 -172 61 188 105 150 0
341 342 343 344 345 0
-346 161 0
-346 58 0
-346 -144 0
-346 95 0
-346 190 0
346 -161 -58 144 -95 -190 0
-347 -37 0
-347 -144 0
-347 7 0
-347 47 0
-347 -65 0
347 37 144 -7 -47 65 0
-348 -138 0
-348 93 0
-348 -120 0
-348 28 0
-348 -60 0
348 138 -93 120 -28 60 0
-349 126 0
-349 108 0
-349 43 0
-349 -184 0
-349 -63 0
349 -126 -108 -43 184 63 0
-350 109 0
-350 -20 0
-350 66 0
-350 -141 0
-350 -38 0
350 -109 20 -66 141 38 0
346 347 348 349 350 0
-351 -169 0
-351 145 0
-351 28 0
-351 -49 0
-351 -115 0
351 169 -145 -28 49 115 0
-352 72 0
-352 109 0
-352 174 0
-352 190 0
-352 83 0
352 -72 -109 -174 -190 -83 0
-353 184 0
-353 -187 0
-353 -81 0
-353 94 0
-353 80 0
353 -184 187 81 -94 -80 0
-354 -105 0
-354 -16 0
-354 -129 0
-354 102 0
-354 165 0
354 105 16 129 -102 -165 0
-355 149 0
-355 45 0
-355 128 0
-355 -18 0
-355 136 0
355 -149 -45 -128 18 -136 0
351 352 353 354 355 0
-356 61 0
-356 -121 0
-356 142 0
-356 -95 0
-356 -91 0
356 -61 121 -142 95 91 0
-357 -26 0
-357 125 0
-357 145 0
-357 -151 0
-357 -94 0
357 26 -125 -145 151 94 0
-358 50 0
-358 -62 0
-358 121 0
-358 159 0
-358 -158 0
358 -50 62 -121 -159 158 0
-359 160 0
-359 -41 0
-359 -124 0
-359 -60 0
-359 42 0
359 -160 41 124 60 -42 0
-360 -126 0
-360 147 0
-360 158 0
-360 85 0
-360 108 0
360 126 -147 -158 -85 -108 0
356 357 358 359 360 0
-361 -38 0
-361 188 0
-361 -181 0
-361 -88 0
-361 55 0
361 38 -188 181 88 -55 0
-362 156 0
-362 158 0
-362 6 0
-362 63 0
-362 61 0
362 -156 -158 -6 -63 -61 0
-363 -167 0
-363 43 0
-363 14 0
-363 54 0
-363 -75 0
363 167 -43 -14 -54 75 0
-364 -46 0
-364 90 0
-364 -80 0
-364 146 0
-364 -6 0
364 46 -90 80 -146 6 0
-365 88 0
-365 -62 0
-365 -15 0
-365 -147 0
-365 -24 0
365 -88 62 15 147 24 0
361 362 363 364 365 0
-366 -52 0
-366 -140 0
-366 -121 0
-366 -91 0
-366 28 0
366 52 140 121 91 -28 0
-367 -96 0
-367 143 0
-367 88 0
-367 -47 0
-367 -84 0
367 96 -143 -88 47 84 0
-368 -22 0
-368 86 0
-368 -166 0
-368 -175 0
-368 -129 0
368 22 -86 166 175 129 0
-369 -47 0
-369 91 0
-369 3 0
-369 26 0
-369 178 0
369 47 -91 -3 -26 -178 0
-370 26 0
-370 149 0
-370 174 0
-370 -24 0
-370 -66 0
370 -26 -149 -174 24 66 0
366 367 368 369 370 0
-371 -92 0
-371 -76 0
-371 146 0
-371 70 0
-371 181 0
371 92 76 -146 -70 -181 0
-372 165 0
-372 -5 0
-372 129 0
-372 84 0
-372 -134 0
372 -165 5 -129 -84 134 0
-373 67 0
-373 158 0
-373 -50 0
-373 138 0
-373 75 0
373 -67 -158 50 -138 -75 0
-374 181 0
-374 -189 0
-374 -109 0
-374 167 0
-374 -190 0
374 -181 189 109 -167 190 0
-375 172 0
-375 150 0
-375 176 0
-375 79 0
-375 56 0
375 -172 -150 -176 -79 -56 0
371 372 373 374 375 0
-376 94 0
-376 98 0
-376 -185 0
-376 -38 0
-376 -45 0
376 -94 -98 185 38 45 0
-377 105 0
-377 -154 0
-377 -3 0
-377 -20 0
-377 134 0
377 -105 154 3 20 -134 0
-378 -115 0
-378 -105 0
-378 -185 0
-378 134 0
-378 139 0
378 115 105 185 -134 -139 0
-379 34 0
-379 -181 0
-379 -23 0
-379 -99 0
-379 94 0
379 -34 181 23 99 -94 0
-380 -68 0
-380 37 0
-380 143 0
-380 145 0
-380 109 0
380 68 -37 -143 -145 -109 0
376 377 378 379 380 0
-381 130 0
-381 124 0
-381 46 0
-381 -78 0
-381 -150 0
381 -130 -124 -46 78 150 0
-382 9 0
-382 190 0
-382 151 0
-382 153 0
-382 102 0
382 -9 -190 -151 -153 -102 0
-383 -188 0
-383 109 0
-383 -189 0
-383 -107 0
-383 77 0
383 188 -109 189 107 -77 0
-384 -95 0
-384 17 0
-384 -189 0
-384 89 0
-384 52 0
384 95 -17 189 -89 -52 0
-385 -12 0
-385 -120 0
-385 27 0
-385 49 0
-385 -8 0
385 12 120 -27 -49 8 0
381 382 383 384 385 0
-386 -14 0
-386 153 0
-386 -87 0
-386 185 0
-386 -50 0
386 14 -153 87 -185 50 0
-387 123 0
-387 45 0
-387 90 0
-387 19 0
-387 -24 0
387 -123 -45 -90 -19 24 0
-388 -190 0
-388 -140 0
-388 177 0
-388 146 0
-388 12 0
388 190 140 -177 -146 -12 0
-389 24 0
-389 -77 0
-389 182 0
-389 -53 0
-389 -172 0
389 -24 77 -182 53 172 0
-390 57 0
-390 -126 0
-390 -26 0
-390 -184 0
-390 -85 0
390 -57 126 26 184 85 0
386 387 388 389 390 0
-391 30 0
-391 2 0
-391 101 0
-391 22 0
-391 -76 0
391 -30 -2 -101 -22 76 0
-392 108 0
-392 -148 0
-392 -60 0
-392 -158 0
-392 63 0
392 -108 148 60 158 -63 0
-393 146 0
-393 -1 0
-393 -147 0
-393 2 0
-393 -151 0
393 -146 1 147 -2 151 0
-394 -98 0
-394 123 0
-394 166 0
-394 185 0
-394 182 0
394 98 -123 -166 -185 -182 0
-395 110 0
-395 150 0
-395 172 0
-395 153 0
-395 23 0
395 -110 -150 -172 -153 -23 0
391 392 393 394 395 0
-396 -108 0
-396 -115 0
-396 -40 0
-396 -120 0
-396 34 0
396 108 115 40 120 -34 0
-397 -138 0
-397 -167 0
-397 57 0
-397 -61 0
-397 -183 0
397 138 167 -57 61 183 0
-398 -185 0
-398 -190 0
-398 -136 0
-398 125 0
-398 102 0
398 185 190 136 -125 -102 0
-399 42 0
-399 -90 0
-399 188 0
-399 17 0
-399 -74 0
399 -42 90 -188 -17 74 0
-400 -71 0
-400 -150 0
-400 -83 0
-400 149 0
-400 127 0
400 71 150 83 -149 -127 0
396 397 398 399 400 0
-401 157 0
-401 -188 0
-401 162 0
-401 168 0
-401 156 0
401 -157 188 -162 -168 -156 0
-402 -132 0
-402 -140 0
-402 12 0
-402 25 0
-402 67 0
402 132 140 -12 -25 -67 0
-403 104 0
-403 36 0
-403 154 0
-403 100 0
-403 -115 0
403 -104 -36 -154 -100 115 0
-404 -111 0
-404 1 0
-404 152 0
-404 -31 0
-404 -158 0
404 111 -1 -152 31 158 0
-405 169 0
-405 -30 0
-405 78 0
-405 -165 0
-405 66 0
405 -169 30 -78 165 -66 0
401 402 403 404 405 0
-406 -168 0
-406 -5 0
-406 -184 0
-406 86 0
-406 14 0
406 168 5 184 -86 -14 0
-407 -4 0
-407 -3 0
-407 -186 0
-407 113 0
-407 -94 0
407 4 3 186 -113 94 0
-408 -177 0
-408 118 0
-408 62 0
-408 -173 0
-408 -156 0
408 177 -118 -62 173 156 0
-409 -143 0
-409 -165 0
-409 -33 0
-409 7 0
-409 -122 0
409 143 165 33 -7 122 0
-410 -76 0
-410 -92 0
-410 54 0
-410 127 0
-410 10 0
410 76 92 -54 -127 -10 0
406 407 408 409 410 0
-411 -2 0
-411 -48 0
-411 -135 0
-411 -12 0
-411 -163 0
411 2 48 135 12 163 0
-412 -145 0
-412 24 0
-412 -1 0
-412 53 0
-412 -152 0
412 145 -24 1 -53 152 0
-413 -96 0
-413 -167 0
-413 -108 0
-413 163 0
-413 -72 0
413 96 167 108 -163 72 0
-414 -95 0
-414 -35 0
-414 44 0
-414 118 0
-414 -71 0
414 95 35 -44 -118 71 0
-415 -71 0
-415 -141 0
-415 56 0
-415 -99 0
-415 -75 0
415 71 141 -56 99 75 0
411 412 413 414 415 0
-416 52 0
-416 -90 0
-416 75 0
-416 93 0
-416 -120 0
416 -52 90 -75 -93 120 0
-417 18 0
-417 41 0
-417 -147 0
-417 -157 0
-417 -145 0
417 -18 -41 147 157 145 0
-418 171 0
-418 -52 0
-418 167 0
-418 77 0
-418 63 0
418 -171 52 -167 -77 -63 0
-419 53 0
-419 -72 0
-419 -89 0
-419 114 0
-419 169 0
419 -53 72 89 -114 -169 0
-420 54 0
-420 -33 0
-420 146 0
-420 121 0
-420 -102 0
420 -54 33 -146 -121 102 0
416 417 418 419 420 0
-421 -173 0
-421 -118 0
-421 21 0
-421 117 0
-421 65 0
421 173 118 -21 -117 -65 0
-422 155 0
-422 125 0
-422 48 0
-422 -89 0
-422 112 0
422 -155 -125 -48 89 -112 0
-423 -41 0
-423 164 0
-423 -67 0
-423 160 0
-423 155 0
423 41 -164 67 -160 -155 0
-424 -144 0
-424 176 0
-424 -128 0
-424 -79 0
-424 -85 0
424 144 -176 128 79 85 0
-425 170 0
-425 -143 0
-425 109 0
-425 147 0
-425 -82 0
425 -170 143 -109 -147 82 0
421 422 423 424 425 0
-426 -167 0
-426 116 0
-426 16 0
-426 -30 0
-426 100 0
426 167 -116 -16 30 -100 0
-427 16 0
-427 127 0
-427 152 0
-427 114 0
-427 -52 0
427 -16 -127 -152 -114 52 0
-428 78 0
-428 -32 0
-428 -83 0
-428 -182 0
-428 104 0
428 -78 32 83 182 -104 0
-429 56 0
-429 122 0
-429 -29 0
-429 -107 0
-429 -31 0
429 -56 -122 29 107 31 0
-430 -66 0
-430 -123 0
-430 -13 0
-430 101 0
-430 -100 0
430 66 123 13 -101 100 0
426 427 428 429 430 0
